
Gurobi 6.5.2 (win64) logging started 07/24/16 17:23:44


Gurobi 6.5.2 (win64) logging started 07/24/16 17:23:44

Optimize a model with 1589 rows, 544 columns and 4214 nonzeros
Coefficient statistics:
  Matrix range    [6e-08, 4e+02]
  Objective range [1e+00, 1e+00]
  Bounds range    [1e+00, 1e+00]
  RHS range       [6e-06, 2e+03]
Presolve removed 1140 rows and 98 columns
Presolve time: 0.02s
Presolved: 449 rows, 446 columns, 2114 nonzeros
Variable types: 249 continuous, 197 integer (197 binary)

Root relaxation: objective 1.631120e+01, 571 iterations, 0.00 seconds

    Nodes    |    Current Node    |     Objective Bounds      |     Work
 Expl Unexpl |  Obj  Depth IntInf | Incumbent    BestBd   Gap | It/Node Time

     0     0   16.31120    0   67          -   16.31120      -     -    0s
H    0     0                      17.6798295   16.31120  7.74%     -    0s
     0     0   17.27356    0   68   17.67983   17.27356  2.30%     -    0s
H    0     0                      17.6494359   17.27356  2.13%     -    0s
H    0     0                      17.5849635   17.27356  1.77%     -    0s
H    0     0                      17.5757016   17.27356  1.72%     -    0s
     0     0   17.27958    0   68   17.57570   17.27958  1.68%     -    0s
     0     0   17.28382    0   68   17.57570   17.28382  1.66%     -    0s
     0     0   17.28382    0   68   17.57570   17.28382  1.66%     -    0s
     0     0   17.28382    0   69   17.57570   17.28382  1.66%     -    0s
     0     0   17.28382    0   70   17.57570   17.28382  1.66%     -    0s
H    0     0                      17.5637515   17.28382  1.59%     -    0s
H    0     0                      17.5512697   17.28382  1.52%     -    0s
     0     0   17.28382    0   68   17.55127   17.28382  1.52%     -    0s
     0     0   17.30382    0   41   17.55127   17.30382  1.41%     -    0s
     0     0   17.31823    0   40   17.55127   17.31823  1.33%     -    0s
     0     0   17.31856    0   41   17.55127   17.31856  1.33%     -    0s
     0     0   17.31857    0   40   17.55127   17.31857  1.33%     -    0s
     0     0   17.31857    0   36   17.55127   17.31857  1.33%     -    0s
H    0     0                      17.5507914   17.31857  1.32%     -    0s
     0     2   17.31857    0   36   17.55079   17.31857  1.32%     -    0s
*   32     6               6      17.5428745   17.40564  0.78%   6.8    0s
*  103     2               7      17.5408739   17.45439  0.49%   4.5    0s
*  152     6              10      17.5406867   17.45439  0.49%   4.0    0s
*  156     6              13      17.5375614   17.45439  0.47%   4.0    0s
*  182     0              15      17.5332997   17.46167  0.41%   3.7    0s
*  243     7              11      17.5317244   17.48009  0.29%   3.4    0s

Cutting planes:
  MIR: 10

Explored 282 nodes (2024 simplex iterations) in 0.17 seconds
Thread count was 8 (of 8 available processors)

Optimal solution found (tolerance 1.00e-04)
Best objective 1.753172437439e+01, best bound 1.753172437439e+01, gap 0.0%

Wrote requested result file 'H1\instance1\\Results1E_Sol6.lp'

